Gurobi Optimizer version 9.1.2 build v9.1.2rc0 (linux64)
Thread count: 36 physical cores, 72 logical processors, using up to 32 threads
Optimize a model with 12 rows, 57 columns and 590 nonzeros
Model fingerprint: 0xf32eec78
Model has 47 quadratic constraints
Coefficient statistics:
  Matrix range     [2e-05, 3e+00]
  QMatrix range    [1e+00, 1e+00]
  QLMatrix range   [1e+00, 1e+00]
  Objective range  [8e-03, 7e-01]
  Bounds range     [1e+00, 1e+00]
  RHS range        [1e+00, 1e+00]
Presolve removed 9 rows and 0 columns

Continuous model is non-convex -- solving as a MIP.

Presolve removed 9 rows and 0 columns
Presolve time: 0.00s
Presolved: 189 rows, 57 columns, 443 nonzeros
Presolved model has 47 bilinear constraint(s)
Variable types: 57 continuous, 0 integer (0 binary)

Root relaxation: objective -1.743721e+00, 44 iterations, 0.00 seconds

    Nodes    |    Current Node    |     Objective Bounds      |     Work
 Expl Unexpl |  Obj  Depth IntInf | Incumbent    BestBd   Gap | It/Node Time

     0     0   -1.74372    0   38          -   -1.74372      -     -    0s
H    0     0                       0.6147548   -1.74372   384%     -    0s
     0     0   -1.64739    0    1    0.61475   -1.64739   368%     -    0s
H    0     0                      -1.6450460   -1.64739  0.14%     -    0s
     0     0     cutoff    0        -1.64505   -1.64505  0.00%     -    0s

Cutting planes:
  RLT: 25
  BQP: 3

Explored 1 nodes (76 simplex iterations) in 0.01 seconds
Thread count was 32 (of 72 available processors)

Solution count 2: -1.64505 0.614755 
No other solutions better than -1.64505

Optimal solution found (tolerance 1.00e-04)
Best objective -1.645045978473e+00, best bound -1.645045978473e+00, gap 0.0000%

User-callback calls 78, time in user-callback 0.00 sec
Gurobi Optimizer version 9.1.2 build v9.1.2rc0 (linux64)
Thread count: 36 physical cores, 72 logical processors, using up to 32 threads
Optimize a model with 12 rows, 57 columns and 590 nonzeros
Model fingerprint: 0x5a318950
Model has 47 quadratic constraints
Coefficient statistics:
  Matrix range     [2e-05, 3e+00]
  QMatrix range    [1e+00, 1e+00]
  QLMatrix range   [1e+00, 1e+00]
  Objective range  [5e-03, 7e-01]
  Bounds range     [1e+00, 1e+00]
  RHS range        [1e+00, 1e+00]
Presolve removed 9 rows and 0 columns

Continuous model is non-convex -- solving as a MIP.

Presolve removed 9 rows and 0 columns
Presolve time: 0.00s
Presolved: 189 rows, 57 columns, 443 nonzeros
Presolved model has 47 bilinear constraint(s)
Variable types: 57 continuous, 0 integer (0 binary)

Root relaxation: objective -1.149532e+00, 40 iterations, 0.00 seconds

    Nodes    |    Current Node    |     Objective Bounds      |     Work
 Expl Unexpl |  Obj  Depth IntInf | Incumbent    BestBd   Gap | It/Node Time

     0     0   -1.14953    0   38          -   -1.14953      -     -    0s
H    0     0                       0.6227367   -1.14953   285%     -    0s
     0     0   -0.95475    0    6    0.62274   -0.95475   253%     -    0s
H    0     0                      -0.8372636   -0.95475  14.0%     -    0s
     0     0   -0.93497    0   10   -0.83726   -0.93497  11.7%     -    0s
H    0     0                      -0.8388961   -0.93497  11.5%     -    0s
     0     0   -0.92919    0   15   -0.83890   -0.92919  10.8%     -    0s
     0     0   -0.92807    0   10   -0.83890   -0.92807  10.6%     -    0s
H    0     0                      -0.8864297   -0.92807  4.70%     -    0s
     0     0   -0.92684    0   10   -0.88643   -0.92684  4.56%     -    0s
     0     0   -0.92600    0   10   -0.88643   -0.92600  4.46%     -    0s
     0     0   -0.92553    0   10   -0.88643   -0.92553  4.41%     -    0s
H    0     0                      -0.9141220   -0.92553  1.25%     -    0s
H    0     0                      -0.9141615   -0.92553  1.24%     -    0s
     0     2   -0.92553    0   10   -0.91416   -0.92553  1.24%     -    0s
*   14     4               4      -0.9166130   -0.91687  0.03%  11.2    0s
*   16     0               5      -0.9168716   -0.91687  0.00%   9.9    0s

Cutting planes:
  RLT: 22
  BQP: 3

Explored 18 nodes (265 simplex iterations) in 0.06 seconds
Thread count was 32 (of 72 available processors)

Solution count 8: -0.916872 -0.916613 -0.914161 ... 0.622737

Optimal solution found (tolerance 1.00e-04)
Best objective -9.168715682932e-01, best bound -9.168715682932e-01, gap 0.0000%

User-callback calls 167, time in user-callback 0.00 sec



objective value: -0.9168715682931727
objective bound: -0.9168715682931727
x_opt: [0.6719739252925566, 1.0, 0.0, 1.0, 0.0, 0.0, 0.0, 1.0, 0.0, 0.1912521764462803]
GUROBI solution time: 0.060861825942993164




